
Gurobi 9.0.1 (linux64) logging started Thu Apr 30 06:26:07 2020

Gurobi Optimizer version 9.0.1 build v9.0.1rc0 (linux64)
Optimize a model with 1898 rows, 2120 columns and 19440 nonzeros
Model fingerprint: 0xd11f65e5
Variable types: 0 continuous, 2120 integer (2106 binary)
Coefficient statistics:
  Matrix range     [1e+00, 7e+00]
  Objective range  [3e+00, 1e+02]
  Bounds range     [1e+00, 1e+00]
  RHS range        [1e+00, 1e+00]

User MIP start produced solution with objective 571 (0.01s)
Loaded user MIP start with objective 571

Presolve removed 740 rows and 640 columns
Presolve time: 1.87s
Presolved: 1158 rows, 1480 columns, 12468 nonzeros
Variable types: 0 continuous, 1480 integer (1480 binary)

Root relaxation: objective 3.952569e+02, 648 iterations, 0.03 seconds

    Nodes    |    Current Node    |     Objective Bounds      |     Work
 Expl Unexpl |  Obj  Depth IntInf | Incumbent    BestBd   Gap | It/Node Time

     0     0  395.25686    0  233  571.00000  395.25686  30.8%     -    1s
     0     0  427.97543    0  276  571.00000  427.97543  25.0%     -    2s
     0     0  429.81300    0  280  571.00000  429.81300  24.7%     -    2s
     0     0  430.90826    0  282  571.00000  430.90826  24.5%     -    2s
     0     0  444.80561    0  283  571.00000  444.80561  22.1%     -    2s
     0     0  444.83945    0  285  571.00000  444.83945  22.1%     -    2s
     0     0  465.47481    0  298  571.00000  465.47481  18.5%     -    2s
     0     0  466.32548    0  286  571.00000  466.32548  18.3%     -    2s
     0     0  466.34031    0  293  571.00000  466.34031  18.3%     -    2s
     0     0  472.79117    0  299  571.00000  472.79117  17.2%     -    2s
     0     0  472.94319    0  308  571.00000  472.94319  17.2%     -    3s
     0     0  473.00468    0  308  571.00000  473.00468  17.2%     -    3s
     0     0  473.01418    0  310  571.00000  473.01418  17.2%     -    3s
     0     0  473.70142    0  323  571.00000  473.70142  17.0%     -    3s
     0     0  473.70492    0  336  571.00000  473.70492  17.0%     -    3s
     0     0  474.04423    0  313  571.00000  474.04423  17.0%     -    3s
     0     0  474.04423    0  299  571.00000  474.04423  17.0%     -    3s
     0     0  479.92353    0  126  571.00000  479.92353  16.0%     -    4s
     0     0  497.05081    0  151  571.00000  497.05081  13.0%     -    4s
     0     0  498.03704    0  156  571.00000  498.03704  12.8%     -    4s
     0     0  498.26316    0  145  571.00000  498.26316  12.7%     -    4s
     0     0  498.32464    0  160  571.00000  498.32464  12.7%     -    4s
     0     0  498.46946    0  171  571.00000  498.46946  12.7%     -    4s
     0     0  498.75885    0  161  571.00000  498.75885  12.7%     -    4s
     0     0  498.96288    0  167  571.00000  498.96288  12.6%     -    4s
     0     0  499.08799    0  170  571.00000  499.08799  12.6%     -    4s
     0     0  499.10589    0  157  571.00000  499.10589  12.6%     -    4s
     0     0  499.17174    0  163  571.00000  499.17174  12.6%     -    4s
     0     0  499.42866    0  173  571.00000  499.42866  12.5%     -    4s
     0     0  499.48669    0  176  571.00000  499.48669  12.5%     -    4s
     0     0  499.55694    0  162  571.00000  499.55694  12.5%     -    4s
     0     0  499.58282    0  168  571.00000  499.58282  12.5%     -    4s
     0     0  499.58410    0  173  571.00000  499.58410  12.5%     -    4s
     0     0  499.61357    0  166  571.00000  499.61357  12.5%     -    4s
     0     0  499.68736    0  171  571.00000  499.68736  12.5%     -    4s
     0     0  499.68736    0  171  571.00000  499.68736  12.5%     -    4s
H    0     0                     554.0000000  499.68736  9.80%     -    4s
H    0     0                     552.0000000  499.78915  9.46%     -    4s
     0     2  499.78915    0  171  552.00000  499.78915  9.46%     -    5s
*  121    79              22     548.0000000  506.33824  7.60%  37.9    5s
*  577   125              16     547.0000000  529.00000  3.29%  23.6    6s

Cutting planes:
  Gomory: 1
  Cover: 6
  MIR: 24
  GUB cover: 1
  Inf proof: 1
  Zero half: 21

Explored 809 nodes (21154 simplex iterations) in 6.83 seconds
Thread count was 1 (of 40 available processors)

Solution count 5: 547 548 552 ... 571

Optimal solution found (tolerance 1.00e-04)
Best objective 5.470000000000e+02, best bound 5.470000000000e+02, gap 0.0000%

User-callback calls 3220, time in user-callback 0.00 sec
